unsat
(define-fun f ((x0 (BitVec 64)) (x1 (BitVec 64)) (x2 (BitVec 64))) (BitVec 64) (bvmul x2 #b0000000000000000000000000000000000000000000000000000000000010010))
(define-fun f ((x0 (BitVec 64)) (x1 (BitVec 64)) (x2 (BitVec 64))) (BitVec 64) (bvmul x2 #b0000000000000000000000000000000000000000000000000000000000010010))
int-arith17.sl running time : 0 m .041328358 s
times : .041328358
